1449.97
0 51 7 25 68 50 37 33 17 13 61 47 71 48 16 22 27 63 74 28 8 70 54 26 58 60 29 46 12 53 52 34 32 10 19 20 43 65 5 36 21 69 4 55 40 23 66 57 45 38 30 44 39 67 56 41 15 62 73 42 3 24 72 14 59 18 6 64 49 31 9 35 1 2 11
